&GLOBAL
  PROJECT 128w  
  RUN_TYPE MD        
  PRINT_LEVEL LOW
&END GLOBAL
&FORCE_EVAL
  METHOD QS
  &DFT
    BASIS_SET_FILE_NAME ./BASIS_MOLOPT   
    POTENTIAL_FILE_NAME ./GTH_POTENTIALS
    &MGRID
      CUTOFF 280
    &END MGRID
    &QS
      EPS_DEFAULT 1.0E-12
      WF_INTERPOLATION PS 
      EXTRAPOLATION_ORDER 3
    &END QS
    &SCF
      SCF_GUESS RESTART 
      &OT ON
        #MINIMIZER DIIS
      &END OT
     EPS_SCF      1.0E-7
     MAX_SCF 300
     #&PRINT
     #  &RESTART OFF
     #  &END
     #&END

    &END SCF
    &XC
      &XC_FUNCTIONAL BLYP  
      &END XC_FUNCTIONAL
      &vdW_POTENTIAL
         DISPERSION_FUNCTIONAL PAIR_POTENTIAL
         &PAIR_POTENTIAL
            TYPE DFTD3
            CALCULATE_C9_TERM .TRUE.
            REFERENCE_C9_TERM .TRUE.
            LONG_RANGE_CORRECTION .TRUE.
            PARAMETER_FILE_NAME ./dftd3.dat
            REFERENCE_FUNCTIONAL BLYP 
            R_CUTOFF 8.
            EPS_CN 0.01
         &END PAIR_POTENTIAL
      &END vdW_POTENTIAL
    &END XC
  &END DFT
  &SUBSYS
    &CELL
      ABC 15.6404 15.6404 15.6404 
      PERIODIC XYZ
    &END CELL
    #128 H2O (TIP5P,1bar,300K) a = 15.6404
    #256 H2O (TIP5P,1bar,300K) a = 19.7340
    #input coords from an equilibrated structure 
    #&COORD
    @INCLUDE 'pos.inc'
    #&END COORD
    &KIND H
      BASIS_SET DZVP-MOLOPT-SR-GTH
      POTENTIAL GTH-BLYP-q1
    &END KIND
    &KIND O
      BASIS_SET DZVP-MOLOPT-SR-GTH
      POTENTIAL GTH-BLYP-q6
    &END KIND
    &KIND I 
      BASIS_SET DZVP-MOLOPT-SR-GTH
      POTENTIAL GTH-BLYP-q7
    &END KIND
    &KIND K 
      BASIS_SET DZVP-MOLOPT-SR-GTH
      POTENTIAL GTH-BLYP-q9                        
    &END KIND
  &END SUBSYS
&END FORCE_EVAL

&MOTION
  &GEO_OPT
    TYPE minimization
    OPTIMIZER BFGS
    MAX_ITER 20
  &END GEO_OPT

  &MD
    &THERMOSTAT
      &NOSE
        LENGTH 3
        YOSHIDA 3
        TIMECON 1000.
        MTS 2
      &END NOSE
    &END THERMOSTAT
    ENSEMBLE NVT
    STEPS 1000000
    TIMESTEP 0.5
    TEMPERATURE 300.0
    TEMP_TOL 60
  &END MD

  &PRINT
   &TRAJECTORY
     &EACH
       MD 1
     &END EACH
   &END TRAJECTORY
   &VELOCITIES ON
     &EACH
       MD 1
     &END EACH
   &END VELOCITIES
   &FORCES ON
     &EACH
       MD 1
     &END EACH
   &END FORCES

   &RESTART_HISTORY
     &EACH
       MD 1000
     &END EACH
   &END RESTART_HISTORY
   &RESTART
     BACKUP_COPIES 1
     &EACH
       MD 1
     &END EACH
   &END RESTART
#   &STRESS
#   &END STRESS
  &END PRINT
&END MOTION

&EXT_RESTART
  RESTART_FILE_NAME ./128w-1.restart
  RESTART_COUNTERS T
  RESTART_POS T
  RESTART_VEL T
  RESTART_THERMOSTAT T
#  RESTART_CONSTRAINT F
&END EXT_RESTART

