 # Version information for this restart file 
 # current date 2021-11-20 03:36:39.221
 # current working dir /PARA2/blsc784/sio2_md/cp2k/aimd1
 # Program compiled at                              Tue Sep 11 10:45:54 CST 2018
 # Program compiled on                                                       ln0
 # Program compiled for                                       Linux-x86-64-intel
 # Source code revision number                                         svn:18464
 &GLOBAL
   PRINT_LEVEL  LOW
   PROJECT_NAME sio2_aimd
   RUN_TYPE  GEO_OPT
 &END GLOBAL
 &MOTION
   &GEO_OPT
     TYPE  MINIMIZATION
     OPTIMIZER  BFGS
     MAX_ITER  20
     STEP_START_VAL  20
   &END GEO_OPT
   &MD
     ENSEMBLE  NVT
     STEPS  100000
     TIMESTEP     4.9999999999999994E-01
     TEMPERATURE     3.0000000000000000E+02
     TEMP_TOL     6.0000000000000000E+01
     &THERMOSTAT
       &NOSE
         LENGTH  3
         YOSHIDA  3
         TIMECON     9.9999999999999989E+02
         MTS  2
       &END NOSE
     &END THERMOSTAT
   &END MD
   &PRINT
     &TRAJECTORY  SILENT
       &EACH
         MD  1
       &END EACH
     &END TRAJECTORY
     &VELOCITIES  ON
       &EACH
         MD  1
       &END EACH
     &END VELOCITIES
     &FORCES  ON
       &EACH
         MD  1
       &END EACH
     &END FORCES
     &RESTART  SILENT
       BACKUP_COPIES  1
       &EACH
         MD  1
       &END EACH
     &END RESTART
     &RESTART_HISTORY  SILENT
       &EACH
         MD  1000
       &END EACH
     &END RESTART_HISTORY
   &END PRINT
 &END MOTION
 &FORCE_EVAL
   METHOD  QS
   &DFT
     BASIS_SET_FILE_NAME ./BASIS_MOLOPT
     POTENTIAL_FILE_NAME ./GTH_POTENTIALS
     &SCF
       MAX_SCF  300
       EPS_SCF     9.9999999999999995E-08
       SCF_GUESS  ATOMIC
       &OT  T
       &END OT
     &END SCF
     &QS
       EPS_DEFAULT     9.9999999999999998E-13
       EXTRAPOLATION  PS
       EXTRAPOLATION_ORDER  3
     &END QS
     &MGRID
       CUTOFF     2.8000000000000000E+02
     &END MGRID
     &XC
       DENSITY_CUTOFF     1.0000000000000000E-10
       GRADIENT_CUTOFF     1.0000000000000000E-10
       TAU_CUTOFF     1.0000000000000000E-10
       &XC_FUNCTIONAL  NO_SHORTCUT
         &BECKE88  T
         &END BECKE88
         &LYP  T
         &END LYP
       &END XC_FUNCTIONAL
       &VDW_POTENTIAL
         POTENTIAL_TYPE  PAIR_POTENTIAL
         &PAIR_POTENTIAL
           R_CUTOFF     8.0000000000000000E+00
           TYPE  DFTD3
           PARAMETER_FILE_NAME ./dftd3.dat
           REFERENCE_FUNCTIONAL BLYP
           EPS_CN     1.0000000000000000E-02
           CALCULATE_C9_TERM  T
           REFERENCE_C9_TERM  T
           LONG_RANGE_CORRECTION  T
         &END PAIR_POTENTIAL
       &END VDW_POTENTIAL
     &END XC
   &END DFT
   &SUBSYS
     &CELL
       A     1.6289999999999999E+01    0.0000000000000000E+00    0.0000000000000000E+00
       B     0.0000000000000000E+00    1.6289999999999999E+01    0.0000000000000000E+00
       C     0.0000000000000000E+00    0.0000000000000000E+00    1.6289999999999999E+01
       PERIODIC  XYZ
       MULTIPLE_UNIT_CELL  1 1 1
     &END CELL
     &COORD
Si    3.1634377212005509E+00    1.4416497144841558E+00    7.5988667580609617E+00
Si    6.1756744148167035E+00    7.9946583835078302E+00    9.6286540626005461E+00
Si    1.5820086139405271E+01    5.1810676230522370E+00    6.7117952473827005E+00
Si    4.9344846935805435E+00    8.8848456798903257E+00    5.0640403856135832E+00
Si    5.1389596517779559E+00    1.5433677323481222E+01    1.3926799129954665E+01
Si    7.6447476582049241E+00    1.2361514205545104E+01    1.5839236090773163E+00
Si    4.0428891286691071E+00    1.4308746495160394E+01    2.3637465827069151E+00
Si    1.1486534808154937E+01    2.5276227834308833E+00    1.1965638342612062E+01
Si    7.0265192241245202E+00    1.3465621985478219E+01    6.4651715078335297E+00
Si    1.5820291939770303E+01    1.4344760437960067E+01    9.0600295786420268E+00
Si    1.7598565839374680E+00    1.1433308482257274E+01    1.3972584410590295E+01
Si    1.4643005524285098E+01    3.5892963895208907E+00    4.8592243885823097E+00
Si    2.0587966513465341E+00    4.0465115344328746E+00    6.6268644426418035E+00
Si    4.7857554532418147E+00    9.6891673332152202E+00    2.8636015164168818E+00
Si    1.1705267559247941E+01    5.6538895908038658E+00    1.6366179920385658E+01
Si    1.5557410379134382E+01    5.6145978667251581E+00    9.6572897448597192E+00
Si    8.1244133260470464E-01    1.1410733621496259E+01    6.4322801080765615E+00
Si    2.6356219261556619E+00    8.2082245696808087E+00    9.2173248188104413E+00
Si    6.9102372173620390E+00    2.7264568317858857E+00    4.9156328192134273E+00
Si    1.6108510368432867E+01    9.9406215444203099E+00    1.5697339539117278E+01
Si    3.1205224427893508E+00    4.6073702574532005E+00    1.1834660400808003E+01
Si    1.5360764278459095E+01    8.8603757658127638E+00    7.4582031549610575E+00
Si    3.0329807306743201E-01    7.4715687690361396E-02    7.9816359151912746E+00
Si    8.2433814102470198E+00    7.5477399941014278E+00    7.0750522332476926E+00
Si    3.0290777799390058E+00    8.3011695283085984E+00    4.0863829992290608E+00
Si    1.2970141200500382E+01    1.6041552005678597E+01    1.0020641902716694E+01
Si    1.5397807768301650E+01    1.4381602199215500E+01    6.7776100456238559E+00
Si    7.6367693204304912E+00    1.2245687840824305E+01    9.2023798997690385E+00
Si    1.0490437525195913E+01    1.7631291527718893E+00    1.5524119718201646E+01
Si    1.3459976296768684E+01    3.7471476463062219E+00    2.4119807795023709E+00
Si    5.1966227471254287E+00    8.5360994677307911E+00    1.5018203220658078E+01
Si    1.9610026775587902E-01    4.4472415120538417E-01    5.6683031896074283E+00
Si    9.4403862929864797E+00    3.3548831568591129E+00    9.7527115414247700E-01
Si    1.3596478171409371E+01    1.0152838611936355E+01    1.0947737868516921E+01
Si    1.2167910902543191E+01    3.7601377697969776E+00    4.8697983319479103E+00
Si    1.1576949911910139E+01    1.5228292493580739E+01    1.3378963911760067E+01
Si    1.5223454789055198E+01    1.4742053913458298E+01    3.8842949692548641E+00
Si    6.5782908120418542E+00    1.0474700184558015E+00    7.4936030067253165E+00
Si    1.4439564074789148E+01    7.3197115904388754E+00    8.4068511288956937E+00
Si    2.4599650051025233E+00    1.2167483740199152E+00    4.7277249598308044E+00
Si    6.2475018639892044E+00    5.2545434806816349E+00    3.9252735948184965E+00
Si    1.0254092703064603E+00    3.4772140068406304E-01    1.4394993691556229E+01
Si    1.0601828503556538E+01    2.2765693317369142E+00    5.7652892305398193E+00
Si    1.3172115819236065E+01    1.0683604956557884E+01    5.3377888009485481E+00
Si    9.4159991316025504E+00    1.4547637764834377E+01    9.0249521053095467E+00
Si    1.0302495555257522E+01    1.5939316262212508E-01    7.8275015756246269E+00
Si    1.3213818688005764E+01    3.7091689573225120E+00    1.0475502094730947E+01
Si    5.0320684292686186E+00    1.0375291355998388E+00    5.1343279130242996E+00
Si    4.6700203352856358E+00    1.3487957588557006E+01    1.2068846851498707E+01
Si    6.3293182231032041E+00    8.7266782213416469E+00    1.2378998345367267E+01
Si    6.9513981425678217E+00    3.6955882682875560E+00    9.0105452688122547E+00
Si    4.2647592938210108E+00    6.0309941196745847E+00    1.6518807074490329E+01
Si    8.6094851875634983E+00    3.0585088286627222E+00    1.4939891548510325E+01
Si    1.5650313282459644E+01    2.2887841603601156E+00    1.2928787723433269E+01
Si    2.1045026830635285E+00    1.2969995908055539E+01    1.0467469856404374E+01
Si    9.5282145904692861E+00    5.3290405534368057E+00    4.2964411933924609E+00
Si    7.3666471926433914E+00    2.4177329019014833E+00    1.7864980744765717E+00
Si    8.2274335736696913E-01    2.3894255565692051E+00    2.2945627642372451E-01
Si    1.4983993446933418E+01    1.0655886171075313E+00    9.6450730298337000E+00
Si    2.3356421554314574E-01    5.2912643633542880E+00    1.1799102789955217E+01
Si    8.4412298687076408E+00    5.5041252036923938E+00    8.4536502114592444E+00
Si    1.4802037417527318E+01    5.1801421754025041E+00    1.5812043277247678E+01
Si    4.2907421320856063E+00    9.4984500389355748E+00    1.0599359871967465E+01
Si    1.0358670329500610E+01    6.7011141820394551E+00    6.7446645741841982E+00
Si    1.4871301200234889E+01    6.1506542541969660E+00    1.3680876622315578E+01
Si    8.7066192964352371E+00    6.4729676388612818E+00    1.8639224109860791E-01
Si    1.1009481615082755E+01    4.0085239473077809E+00    2.6607714593977945E+00
Si    8.4667227934314084E+00    1.4623450369414380E+01    4.3426477309823293E+00
Si    3.3537475463306426E-01    1.1317123783292509E+01    4.3070404682694319E+00
Si    4.7321424558409388E+00    5.0982294075063033E+00    9.2470425231927429E+00
Si    1.2579315039078613E+01    8.4992748466057471E+00    2.9945423069415913E+00
Si    3.8972938145172753E+00    9.1856970998471148E+00    7.4013311028647628E+00
Si    6.6398063358619250E+00    5.2286097828843285E+00    1.4101327619402001E+01
Si    1.0815513061415141E+01    2.8772054701671594E+00    9.2061465563264910E+00
Si    5.9244268704262550E+00    1.2089401849669443E+01    1.0809810022911186E+01
Si    1.3711915910408880E+01    5.1254725465427224E+00    8.5666205988452084E+00
Si    1.2933270911813210E+01    4.4766492554444941E+00    1.2836447981269636E+01
Si    1.5095328944328552E+00    1.0657903275215848E+01    1.6994359326571882E+01
Si    1.2455984716025508E+01    8.7192327938027354E+00    5.4581389603167274E-01
Si    1.6373662169777290E+01    8.0126744094109981E+00    5.9083189079215659E+00
Si    1.6760926353133428E+01    8.7344983558421969E+00    1.3587670381244587E+01
Si    1.7210898170885214E+00    8.4181758285025445E+00    9.9189003942706611E-01
Si    1.1087402636661809E+00    4.2354672786200629E+00    4.4671011441181898E+00
Si    1.7436191440176347E+00    1.4468917624064710E+01    6.3506221992940493E+00
Si    1.1791152509097325E+00    3.8223309810076067E+00   -1.1055207423988500E+00
Si   -1.2533301382624571E+00    2.2975054388161098E+00    7.5252153536285871E-01
Si    2.8943119727298199E+00    1.2699533479793455E+01    1.6408955728952300E+01
Si    1.2599465989205990E+01    3.9176332350217646E+00    1.5066497847689375E+01
Si    1.1895722982832293E+01    1.8550597940723104E+00    3.0141283332368727E+00
Si    4.7935539926253119E+00    2.4611369545385156E+00    1.7664660527906628E+00
Si    1.5100985194012976E+01    5.8339375701359790E+00    4.1733173322072847E+00
Si    7.1125103462610468E+00    5.6619635815451974E-01    1.5254327591726598E+01
Si    5.5309331457613187E+00    2.6578305129799684E+00    1.3087104498789962E+01
Si    3.0122766739445259E+00    1.1615417614450907E+01    1.2212586789913617E+01
Si    1.3201348155746679E+01    1.4156803793280840E+01    8.7454394557373849E+00
Si   -1.2378462367828971E-01    8.0403534833152506E+00    1.0768340996515304E+01
Si    1.5150454745545920E+01   -2.4182093364448595E-01    1.3436034877275253E+01
Si    1.2010431878419212E+01    8.4000884366090922E+00    6.9308840306629262E+00
Si    3.8594416352813243E+00    4.0821912939882790E+00    5.0467700362145811E+00
Si    1.8957732375062588E+00    2.9547558497771429E+00    1.0983988132451396E+01
O    5.7770427935100219E+00    1.0297716882912329E+01    1.1709361449031441E+01
O    1.3815232059582115E+01    1.2589949247219664E+01    8.5893180074076287E+00
O    9.9686303660766846E+00    8.4795134471967835E+00    1.5054813698583892E+01
O    1.2691853451167253E+01    1.2119499023024050E+01    3.3469607225226325E+00
O    8.4074257593507484E-01    5.4480340075952851E+00    1.0226644189867715E+01
O    6.8099410005532190E+00    1.1689757108010360E+01    1.6524283334964263E+01
O    3.9734089552162826E+00    1.0955521069468624E+01    2.3267884493620081E+00
O    9.2856781423869472E-01    1.0194204606458374E+01    1.3202135486353527E+01
O    3.9526256757548328E+00    7.7030610756558016E+00   -4.6550806429135588E-01
O    6.9013516866704867E+00    1.5087634119010762E+01    1.0626249728434427E+01
O    1.2976274850130460E+01    7.2150478909336897E+00    7.8850502664465463E+00
O    8.3655049521710083E+00    9.5018014237998705E-01    1.1674691469774109E+01
O    6.0689566505287322E+00    1.5498652190828825E+01    1.5489273981819911E+01
O    1.2012069827324064E+01    4.9831549896823608E+00    1.7326978781956521E+00
O    4.4724457203111214E+00    4.3386096742507325E+00    1.2774451423807628E+01
O    5.0277211096826724E+00    1.1741788091694559E+01    9.4006335052281980E+00
O    3.5894320927807519E+00    1.4120675858930307E+01    1.5715813864890237E+01
O    1.2369412576507592E+01    1.1998658921578437E+01    1.4409634313258836E+01
O    1.2304281355242274E+01    9.4877201389014232E+00    1.5445874000838806E+01
O    1.2715290975439897E+01    1.0075616842290182E-01    1.3791106384784438E+01
O    1.3247361433569749E+01    1.4466376380874617E+00    3.8588032582586576E+00
O    6.2688416278269532E+00    2.2049606882538919E+00    8.8093838950761043E+00
O    4.9760061404576028E+00    1.2088142469174063E+01    4.8417432879129709E+00
O    1.3291902845067785E+01    1.5165087656077825E+01    7.3531657939670447E+00
O    1.4718256812515926E+00    1.2881349222337331E+01    6.5515791237143821E+00
O    1.2338994397321111E+01    9.6881381194136225E+00    2.0324378825270046E+00
O    1.9966944283136134E-01    1.4936635374241781E+01    1.2679877382714775E+01
O    1.6489483002712507E+01    3.2629704899232399E+00    1.1635955946696878E+01
O    6.7909914069458415E+00    5.1728025889523144E+00    2.3858891392393184E+00
O    1.0968205217206346E+01    1.4108979474529740E+01    1.2054290947841714E+01
O    1.6686161750659711E+01    1.4678601591820277E+01    3.0334419406646198E+00
O    3.2659393398914691E+00    9.9828412893503220E+00    1.1539227143651877E+01
O    8.5004342516673361E+00    2.1105345882523898E+00    1.0719696237460525E+01
O    6.4368748888640779E+00    1.1073969597926123E+01    8.5955092384512710E+00
O    2.8613822128088953E+00    1.7955394533172218E+00    1.1365624284763781E+01
O    9.9893908637688895E+00    5.1082756986359810E+00    1.2714242274801755E+01
O    1.9278121025972159E-01    1.3628813561335557E+01    1.2480897615159972E+01
O    1.7315784511749694E+01    6.0742562057381608E+00    6.1805128502767861E+00
O    1.1309599556699220E+01    5.3700190992137440E+00    1.3029159716261805E+01
O    1.9276785525597495E+00    1.5425480544222573E+01    1.4105757012184513E+01
O    1.4306019493336864E+01    2.4866260226083905E+00    1.0122775630742412E+01
O    6.6441065102854893E+00    1.4022904822423193E+01    1.5258202949530638E+01
O    1.3642663195374942E+01    1.4134259286025592E+00    1.6729235085862239E+01
O    9.2658032225581655E-01    1.6878991139451338E+00    1.3538275520382307E+01
O    1.5318074852834469E+01    1.1289971344179971E+01    6.1787516945506971E+00
O    8.8624175422826497E+00    4.5512190842420450E+00    1.5823081060046624E+01
O    1.0398308846503632E+01    1.2037302970287447E+01    1.5138719921479069E+00
O    1.4698499196301301E+01   -1.2578950672896766E-01    2.1048721873236103E+00
O    1.3006905446988405E+01    1.2482410717836201E+01    1.5434609626938203E+00
O    1.2218181209751940E+01    7.3421222671075226E+00    1.4557808759360129E+00
O    6.1885486457585790E+00    1.1514959123960764E+01    1.6284235698974454E+00
O    1.0178230968356916E+01    2.3853261091886866E+00    1.2834181580999999E+01
O   -3.0748477978092337E-01    8.9762881460837161E+00    8.4590774147155745E-01
O    1.4978499466437823E+01    1.4015002279273629E+01    5.2735433717292288E+00
O    6.4289350532631486E+00    5.3173491002074691E-01    1.3327324600520361E+01
O    2.8468000638851865E-01    3.7093245371807733E+00    7.0243788424148095E+00
O    4.1715240709437662E+00    5.6773526692159502E+00    4.7289304430446597E+00
O    8.0997006331402215E+00    1.4231288515850393E+01    1.0274254122451039E+01
O    1.3502770686018724E+01    9.0457326441737660E+00    4.4987658991853845E+00
O    5.5900156587451280E+00    1.3941478145250692E+01    6.1575635915930818E+00
O    1.5638336874600315E+01    1.1852495455368000E+01    1.3282236679399251E+01
O    1.3690719339563438E+01    1.3696526799013563E+01    1.2550454768328182E+01
O    1.4328198389548305E+01    1.5345499574787434E+01    1.4609462518439674E+01
O    2.5815686115837981E+00    5.9032947598212688E+00    2.5976372963352730E+00
O    5.6969308062181581E+00    1.4313564672516192E+01    1.0336863547564388E+01
O    4.3299179225503339E+00    7.1126025294330715E+00    2.0575136303755701E+00
O    1.2876777714592155E+01    2.1543372112770571E+00    1.2845144271559384E+01
O    1.2815136009996726E+01    1.2131212223118123E+01    6.0154923516325578E+00
O    2.4781354384551171E+00    9.2858485853286634E+00    6.7744206183195592E+00
O    1.3080044227854556E+01    4.6008519144024274E-01    1.2737302940737820E+00
O    3.0392488414014402E+00    4.8199766199775009E+00    7.7183091083771274E+00
O    2.9972436343988114E+00    1.3197259414784902E+01    1.7129105245999674E+00
O    5.0107262169746800E+00    1.6328427020630489E+01    7.7338948153470986E+00
O    1.5647752434043275E+01    1.0168254871794133E+01    8.2180193603230958E+00
O   -1.0857808707297339E-01    1.3206609237757780E+01    1.5549740540347809E+01
O    1.1100881889097487E+01    9.2435643697099756E-01    6.4065467155771136E+00
O    1.3483263191131266E+01    1.4823785832776259E+01    3.3568741732695457E+00
O    1.0436584876787942E+01    5.7210968682030672E-01    1.4394096170934061E+01
O    2.3484664755710853E+00    3.9215770006992554E+00   -2.5920277434488002E+00
O    1.2088246974221510E+00    1.0284263313143818E+01    2.2671632722872590E+00
O    1.5243108623279834E+01    1.0217428119628954E+01    1.2996555929222726E+00
O    1.6831555585147207E+01    7.9450326642957450E+00    1.2173553484365026E+01
O    1.0704284900782580E+01    7.6562986082008182E+00    8.0443749577609882E+00
O    1.2199100622826979E+01    8.1456718848821064E-01    9.0757930905257069E+00
O    4.4096283454883487E+00    1.0119754016602693E+01    1.4655687427197922E+01
O    1.1628853774123206E+01    1.4417506013640384E+01    1.4776738950248234E+01
O    8.6752135942399047E+00    1.5051022569282395E+00    2.3138039363716794E+00
O    8.1945719667398969E+00    1.5811526035944818E+00    1.4168239976938025E+01
O    9.9148648950231202E+00    2.2325319235619014E+00    8.0135193366899120E+00
O    1.0282735033447908E+01    1.1079066842551207E+01    1.5183617789231702E+01
O    4.8485476146620003E+00    3.4736314331320259E+00    1.4540686863151526E+01
O    1.8465291681665670E+00    2.6186636880841769E+00    4.1405603370154891E+00
O    1.6392546975010553E+00    5.1312205576675174E+00    1.2665331231410740E+01
O    9.0398326393843753E+00    1.1670056657884622E+01    9.6733833346131259E+00
O    1.0411555527578392E+01    1.5719300471117387E+01    1.2277597128906345E+01
O    9.0159254427738211E-01    7.2372470228193597E+00    4.5008629344529787E+00
O    1.9170985885849565E+00    4.4061611340790616E+00    1.1350631962296629E+00
O    1.4544219629781530E+01    7.4812568766615835E+00    1.2867338569076338E+01
O    7.1940784812369412E+00    1.7954052159835425E+00    1.1387106678086347E+01
O    1.1040518926604607E+01    7.8145221806827792E+00    3.4137932644905589E+00
O    9.8825046638673371E+00    6.6148526579267530E+00    2.5069949702651435E+00
O    4.2177639774891569E+00    3.8458272618662481E-01    1.4547821651911985E+01
O    3.9701982385403811E+00    1.2769338743464569E+00    3.8033413274682801E+00
O    6.0001592059016442E+00    9.6317814037443716E-01    1.3840916700880466E+00
O    2.9114749090783949E+00    1.4669508676891065E+01    5.3280486788036256E+00
O    1.0424155565254935E+01    1.3244546813591894E+01    1.1226441750756765E+01
O    9.1832557775296557E+00    1.1581757862112859E+01    1.2682111127782523E+01
O    1.1450821804968532E+01    7.3520567857127892E+00    5.7332509854898515E+00
O    7.1501809932133886E+00    1.5794512105667403E+01    4.2114310999847273E+00
O    1.0352257608756931E+01    6.3992879029897258E+00    3.5111053980164247E-01
O    9.8601948724482451E+00    1.6203996451757689E+01    9.6262788134807131E+00
O    4.3355859413648951E-01    1.3438768293042489E+01    1.0885617171212058E+01
O    7.4352905542617247E+00   -2.8188634660956940E-01    1.3801319141042983E+01
O   -3.5638159944875647E-01    4.5519414220881220E+00    1.4924704008686419E+01
O    7.5320337451666006E+00    3.4585932634238414E+00    6.2666015973372025E+00
O    1.5079654696755020E+01    3.3220809690491335E+00    1.8774295632967619E+00
O    5.9724796935150763E+00    5.9910022868779187E+00    1.5349502730466680E+01
O    1.3769865091808020E+01    3.8958463493970825E+00    1.6198077220745578E+01
O    4.1558889056229491E+00    1.4898836886164329E+01    1.2602429858585685E+01
O    1.0850148021205547E+01    1.3665729267587173E+01    8.3205708694181146E-01
O    7.3723044002016600E+00    1.3290706989124432E+01    7.9623468027760502E+00
O    8.6370152835544332E+00    1.0879880160435988E+01    1.1818343415305339E+01
O    1.0984960052762732E+01    1.4477464203412339E+01    8.0620242967597875E+00
O    5.2146301908684363E+00    8.4190286358565878E+00    1.8234184392643902E+00
O    5.7863814591956650E+00    6.4808492152805375E+00    8.9723753410472398E+00
O    7.7244426696727919E-01    1.3294348195717664E+01    8.9062674133961970E+00
O    1.2255487705536666E+01    9.6065455351514846E+00    1.1329520497634201E+01
O    1.9527110215225671E+00    1.5837493294613042E+01    7.5976767773605989E+00
O    3.8346762613772483E+00    4.0003141211861548E+00    1.5157035990392608E+01
O    1.1495418301558365E+01    1.1304934803401874E+01    1.3909178285304851E+01
O    1.4931030599336315E+01    7.0531197105359267E+00    5.9965271740459878E+00
O    1.3006344562067385E+01    6.3013978045904766E+00    1.5448764464375744E+01
O    1.4868052106822693E+01    9.2335852155160989E+00    1.0735471946889056E+01
O    1.0122589807506827E+01    8.9757224765070269E+00    2.4245067706397973E-02
O    7.2357515797022165E+00    1.0535807356392182E+01    2.3752384998897420E+00
O    9.6043056307108703E+00    2.6944425316620877E+00    4.5590874339972736E+00
O    4.1353634630287512E+00    1.2609217281122968E+01    4.0594201101753322E+00
O   -8.5769512194794439E-01    6.1531966281674233E+00    6.0089741625323900E-01
O    8.2166069949815235E+00    1.8128922226061215E+00    5.4129784725040224E+00
O    9.9461682930654494E+00    5.1180270012564533E+00    6.6306674859290862E+00
O    3.7204548663171075E+00    5.5052623409761541E+00    1.0540243856221441E+01
O    1.5734708862026585E+01    1.4301239863852732E+01    1.5939344354717070E+01
O    1.7720497203122214E+00    1.0999935463854897E+01    3.5228839616398293E+00
O    1.0115584432282141E+01    1.3229337381282996E+01    1.5130427967453212E+01
O    3.0069732321941585E+00    6.3145782905649872E+00    1.5427722814255359E+01
O    1.4437040908955838E+00    9.1512848762124079E+00    9.0494018677845229E+00
O    5.2832823688949659E+00    7.9442746895855674E+00    1.1058485565203284E+01
O    1.2369107050144979E+01    4.9345269052221923E+00    9.8752836784779578E+00
O    2.7095625641991656E+00    4.8556982755922569E+00    3.4913178019753399E+00
O    6.8999660605611277E+00    5.9418620744239821E+00    5.2554687659320098E+00
O    4.1080425541072518E+00    1.0812000602904442E+01    1.5911558945475880E+01
O    7.2486102225649676E+00    1.3925532360674074E+01    1.3044959808090055E+00
O    3.4120187719985977E+00    1.0564021153115035E+00    5.8622172406702822E+00
O    8.7332196200798915E+00    3.5975743202882449E-01    1.4217740164094184E+00
O    1.5091320408420371E+01    7.3077977091968052E+00    3.4529530519853640E+00
O    1.4159965643688473E+01    1.2331372535722219E+01    1.3540017814188896E+00
O    9.1200649792125232E-01    7.9557978855241371E+00    1.4871080769390179E+01
O    1.3114983193183507E+01    1.4830036949880258E+01    1.2043700169547877E+01
O    1.6833299617116605E+01    6.3784753539663051E+00    1.4270687471732536E+01
O    9.9169599187796038E+00    1.4446446725155623E+01    9.4754352761389848E-01
O    1.1802040326072262E+01    9.2357987244037556E+00    1.4212466412684400E+01
O    1.5756068579724609E+01    1.3312198215747557E+01    3.0180571917111561E+00
O    1.3758798071322849E+01    1.1332957630212412E+01    3.6797006772199756E+00
O    5.0899564825364685E+00    8.0543273466663958E+00    1.3439210002321625E+01
O    1.1144113916076369E+01    1.2231115478911034E+00    1.6914351568674689E+01
O    9.1858682900089264E+00    1.3949839476568320E+01    1.5401515644838742E+01
O    8.8515213143213973E+00   -6.3545902481513783E-01    7.5350784917786475E+00
O    7.0258136792018808E+00    4.4229459053670102E+00    7.6126561219518196E+00
O    1.5407031937365671E+01    1.6229319520679350E-01    4.5092128691360394E+00
O    8.6865420052468634E-01    8.4563157485526652E+00    3.7178168963893867E+00
O    1.4101185312230111E+01    8.7148514031612958E+00    7.0113679855039038E-02
O    9.6771185507934998E+00    4.9926499863469731E+00    9.4779516962149621E+00
O    1.2477523867112799E+01    1.4288644046978039E+01    3.8956739930246571E+00
O    1.5133653463759327E+01    7.5556964320206399E-01    1.2079916189679011E+01
O    7.5170135487394578E+00    2.5668075023878019E+00    1.6443509666228504E+01
O    3.2590263596308899E+00    1.3842432475853979E+01    9.7832686720726212E+00
O    1.1824300529984180E+01    2.6528880100615919E+00    1.5080520803182045E+01
O    4.2823861128587666E+00    1.5276676889293213E+01    1.1065713917005953E+00
O    1.4593840235438153E+01    7.8573438051980187E+00    1.4253006308604858E+01
O    2.8265372201514523E+00    8.3264116851844552E+00    2.3684395497901702E+00
O    1.5093142532161357E+01    5.7966566293054340E+00    1.1317589043269152E+01
O    9.7124265325153374E+00    1.1123929766760877E+01    6.1146549898216405E+00
O   -7.2261858144329139E-01    2.1074427047835305E+00   -5.3312595153857212E-01
O    7.5065126929412838E+00    8.9146013687304180E+00    7.0023199747120879E+00
O    1.1460432600811007E+01    1.1008172703848906E+01    1.6774554403547324E+01
O    7.8249348613922578E+00    1.5643362888884518E+01    5.6682420802327824E+00
O    7.9423518815411773E+00    1.3524932695494298E+01    2.7986695266856629E+00
O    4.0444043261936580E+00    1.6614819198568493E+00    1.3921033715505670E+01
O    9.9403300984546927E+00    1.4806873690390452E+01    3.7962372734738521E+00
O    8.1217468864852158E+00    1.3222860113645192E+01    5.2354651378791273E+00
O    1.1911515557837291E+00    7.0276411337744591E+00    1.7229082749925524E+01
O    3.1359592585856300E-01    9.3352271193330658E+00    4.8023689797132745E+00
O    5.8560486825302362E+00    1.3858306522341024E+01    1.3967260226371991E+01
O    5.9749651539444182E+00   -1.5378138523246429E-01    2.3018031521621869E+00
O    1.5338272499797256E+01    1.1399115194663874E+01    1.4546805228745338E+01
O    7.6143661023176312E+00    8.2572539364588042E+00    1.0168069126219276E+01
O    1.6514587117446862E+01    4.9677700194604562E+00    3.1817586475331647E+00
O   -4.0148562191028769E-01    3.9092023944527043E-01    1.6124888131512067E+00
O    5.4997604162883764E+00    4.6012916043157732E+00    5.5088187482451927E+00
O    9.1306663589339845E+00    1.1794697598077773E+01    9.6091423118690833E-01
     &END COORD
     &KIND Si
       BASIS_SET DZVP-MOLOPT-SR-GTH
       POTENTIAL GTH-BLYP-q4
       &POTENTIAL
 2 2
  0.4400000000000000E+00 1 -0.6259586740000000E+01
 2
  0.4446524700000000E+00 2  0.8314609360000000E+01 -0.2332779470000000E+01
  0.3011605350000000E+01
  0.5027920700000000E+00 1  0.2332417910000000E+01
         # Potential name:  GTH-BLYP-Q4  for symbol:  SI
         # Potential read from the potential filename: ./GTH_POTENTIALS
       &END POTENTIAL
     &END KIND
     &KIND O
       BASIS_SET DZVP-MOLOPT-SR-GTH
       POTENTIAL GTH-BLYP-q6
       &POTENTIAL
 2 4
  0.2434202600000000E+00 2 -0.1699189235000000E+02  0.2566142060000000E+01
 2
  0.2208314000000000E+00 1  0.1838885102000000E+02
  0.2172007000000000E+00 0
         # Potential name:  GTH-BLYP-Q6  for symbol:  O
         # Potential read from the potential filename: ./GTH_POTENTIALS
       &END POTENTIAL
     &END KIND
     &TOPOLOGY
       NUMBER_OF_ATOMS  300
       MULTIPLE_UNIT_CELL  1 1 1
     &END TOPOLOGY
   &END SUBSYS
 &END FORCE_EVAL
